3808530341605486958503,10,1,2,010,8,1,2,06,10,1,2,06,11,1,2,04,7,1,2,015,4,1,2,09,13,1,2,012,14,1,2,013,14,1,2,012,6,1,2,03,13,1,2,03,9,1,2,01,13,1,2,05,4,1,2,01,12,1,2,01,6,1,2,015,12,1,2,07,8,1,2,014,12,1,2,015,8,1,2,013,12,1,2,03,14,1,2,015,12,1,2,013,2,1,2,05,6,1,2,08,12,1,2,09,2,1,2,03,1,1,2,05,15,1,2,012,12,1,2,013,9,1,2,09,13,1,2,03,6,1,2,05,8,1,2,012,4,1,2,08,3,1,2,06,7,1,2,011,7,1,2,07,3,1,2,04,9,1,2,013,3,1,2,07,3,1,2,012,1,1,2,07,2,1,2,01,8,1,2,010,7,1,2,010,8,1,2,04,15,1,2,01,4,1,2,013,8,1,2,0